\ LP format - for model browsing. Use MPS format to capture full model detail.
Minimize
  - x0 + x1
Subject To
 constr(0): 5 x0 + 2 x1 <= 1
 constr(1): 5 x0 - 4 x1 >= -0
Bounds
 x0 <= 2
 x1 <= 2
Generals
 x0 x1
End
